
Gurobi 9.5.0 (win64) logging started Tue Dec  7 12:27:05 2021

Set parameter LogFile to value "../results/logs/log_2021_12_07_12_26.csv_2_60.log"
Set parameter Method to value 3
Gurobi Optimizer version 9.5.0 build v9.5.0rc5 (win64)
Thread count: 6 physical cores, 12 logical processors, using up to 12 threads
Optimize a model with 7793 rows, 9882 columns and 42118 nonzeros
Model fingerprint: 0xaa15ad95
Variable types: 4941 continuous, 4941 integer (4941 binary)
Coefficient statistics:
  Matrix range     [1e+00, 2e+00]
  Objective range  [1e+00, 1e+00]
  Bounds range     [1e+00, 1e+00]
  RHS range        [1e+00, 6e+01]
Found heuristic solution: objective 3353.0000000
Presolve removed 7455 rows and 9420 columns
Presolve time: 0.02s
Presolved: 338 rows, 462 columns, 1285 nonzeros
Variable types: 153 continuous, 309 integer (255 binary)
Found heuristic solution: objective 3413.0000000

Root relaxation: objective 3.539500e+03, 303 iterations, 0.00 seconds (0.00 work units)

    Nodes    |    Current Node    |     Objective Bounds      |     Work
 Expl Unexpl |  Obj  Depth IntInf | Incumbent    BestBd   Gap | It/Node Time

     0     0 3539.50000    0   48 3413.00000 3539.50000  3.71%     -    0s
H    0     0                    3499.0000000 3539.50000  1.16%     -    0s
     0     0 3531.00000    0   73 3499.00000 3531.00000  0.91%     -    0s
     0     0 3524.33333    0   62 3499.00000 3524.33333  0.72%     -    0s
     0     0 3521.16667    0   46 3499.00000 3521.16667  0.63%     -    0s
H    0     0                    3500.0000000 3521.16667  0.60%     -    0s
*    0     0               0    3512.0000000 3512.00000  0.00%     -    0s

Cutting planes:
  Gomory: 36
  Implied bound: 45
  MIR: 101
  RLT: 13
  Relax-and-lift: 2

Explored 1 nodes (783 simplex iterations) in 0.07 seconds (0.03 work units)
Thread count was 12 (of 12 available processors)

Solution count 5: 3512 3500 3499 ... 3353

Optimal solution found (tolerance 1.00e-04)
Best objective 3.512000000000e+03, best bound 3.512000000000e+03, gap 0.0000%
